unknown
(model
; cardinality of BoundSet is 3
(declare-sort BoundSet 0)
; rep: @uc_BoundSet_0
; rep: @uc_BoundSet_1
; rep: @uc_BoundSet_2
; cardinality of UnboundSet is 1
(declare-sort UnboundSet 0)
(declare-fun groundTerm_4 () UnboundSet)
(define-fun AreReaching ((BOUND_VARIABLE_399 BoundSet) (BOUND_VARIABLE_400 BoundSet)) Bool true)
(define-fun BecomeUninhabitable ((BOUND_VARIABLE_407 BoundSet)) Bool false)
(define-fun LeadToBreakdown ((BOUND_VARIABLE_407 BoundSet)) Bool true)
)
sat
(model
; cardinality of BoundSet is 1
(declare-sort BoundSet 0)
; rep: @uc_BoundSet_0
; cardinality of UnboundSet is 1
(declare-sort UnboundSet 0)
(declare-fun groundTerm_6 () UnboundSet)
(define-fun AreReaching ((BOUND_VARIABLE_433 BoundSet) (BOUND_VARIABLE_434 BoundSet)) Bool true)
(define-fun BecomeUninhabitable ((BOUND_VARIABLE_438 BoundSet)) Bool false)
(define-fun LeadToBreakdown ((BOUND_VARIABLE_438 BoundSet)) Bool true)
)
